0001 10
0002 10
0003 5
0004 8
0005 6
0006 7
0007 7
0008 7
0009 11
0010 3
0011 11
0012 1
0013 1
0014 1
0015 7
0016 13
0017 13
0018 11
0019 5
0020 5
0021 7
0022 7
0023 13
0024 11
0025 1
0026 11
0027 2
0028 13
0029 13
0030 1
0031 13
0032 13
0033 7
0034 3
0035 7
0036 13
0037 7
0038 5
0039 7
0040 11
0041 11
0042 5
0043 5
0044 5
0045 5
0046 13
0047 13
0048 13
0049 13
0050 7
0051 1
0052 3
0053 3
0054 13
0055 3
0056 11
0057 3
0058 7
0059 13
0060 7
0061 13
0062 11
0063 1
0064 1
0065 13
0066 7
0067 7
0068 5
0069 5
0070 5
0071 8
0072 9
0073 11
0074 11
0075 11
0076 11
0077 13
0078 7
0079 7
0080 13
0081 11
0082 13
0083 1
0084 11
0085 1
0086 5
0087 13
0088 7
0089 1
0090 13
0091 11
0092 1
0093 5
0094 5
0095 3
0096 3
0097 4
0098 6
0099 6
0100 3
0101 6
0102 6
0103 9
0104 9
0105 9
0106 9
0107 3
0108 3
0109 1
0110 1
0111 1
0112 3
0113 11
0114 1
0115 11
0116 7
0117 11
0118 3
0119 1
0120 4
0121 1
0122 1
0123 1
0124 13
0125 11
0126 7
0127 7
0128 11
0129 1
0130 6
0131 8
0132 2
0133 12
0134 4
0135 10
0136 10
0137 8
0138 2
0139 4
